-416 -201
-443 -138
-243 -84
-184 -198
99 -221
262 -196
397 -190
233 -5
204 98
290 96
320 184
314 182
200 220
178 215
-13 243
-97 218
-204 193
-223 38
-436 184
-240 271
-148 311
-113 334
-49 163
6 32
-36 17
-48 -325
-112 -373
-149 -307
-228 -267
-314 -321
